NAME: random-57-9433
TYPE: TSP
COMMENT: size=57 seed=9433
DIMENSION: 116
EDGE_WEIGHT_TYPE: EUC_2D
NODE_COORD_SECTION
+0 431 537
-0 431 537
+1 515 721
-1 931 433
+2 330 45
-2 321 792
+3 850 264
-3 283 387
+4 81 73
-4 168 386
+5 313 911
-5 912 909
+6 773 399
-6 918 678
+7 500 797
-7 212 375
+8 371 402
-8 609 977
+9 258 172
-9 551 931
+10 201 580
-10 217 906
+11 190 390
-11 898 188
+12 918 529
-12 623 867
+13 990 81
-13 208 380
+14 609 719
-14 818 562
+15 775 305
-15 827 569
+16 851 976
-16 71 479
+17 544 324
-17 253 692
+18 344 489
-18 486 955
+19 507 704
-19 624 222
+20 19 948
-20 954 315
+21 931 549
-21 697 158
+22 14 527
-22 651 76
+23 448 779
-23 591 18
+24 139 682
-24 274 406
+25 937 190
-25 420 270
+26 171 390
-26 498 684
+27 775 238
-27 580 497
+28 128 681
-28 537 560
+29 457 885
-29 717 586
+30 454 451
-30 86 988
+31 344 479
-31 920 329
+32 816 781
-32 84 995
+33 60 647
-33 678 414
+34 977 319
-34 457 661
+35 268 59
-35 392 822
+36 803 885
-36 81 791
+37 489 222
-37 957 732
+38 499 179
-38 465 614
+39 972 559
-39 504 533
+40 220 480
-40 245 111
+41 305 967
-41 379 119
+42 239 332
-42 519 564
+43 936 644
-43 962 908
+44 761 569
-44 370 833
+45 546 859
-45 166 551
+46 489 295
-46 498 474
+47 486 220
-47 437 660
+48 294 531
-48 162 302
+49 8 467
-49 839 803
+50 799 654
-50 977 174
+51 226 232
-51 460 45
+52 852 366
-52 769 455
+53 175 629
-53 893 113
+54 73 633
-54 101 165
+55 76 900
-55 445 750
+56 448 123
-56 636 172
+57 94 371
-57 527 915
PRECEDENCE_SECTION
+0 -0
+1 -1
+2 -2
+3 -3
+4 -4
+5 -5
+6 -6
+7 -7
+8 -8
+9 -9
+10 -10
+11 -11
+12 -12
+13 -13
+14 -14
+15 -15
+16 -16
+17 -17
+18 -18
+19 -19
+20 -20
+21 -21
+22 -22
+23 -23
+24 -24
+25 -25
+26 -26
+27 -27
+28 -28
+29 -29
+30 -30
+31 -31
+32 -32
+33 -33
+34 -34
+35 -35
+36 -36
+37 -37
+38 -38
+39 -39
+40 -40
+41 -41
+42 -42
+43 -43
+44 -44
+45 -45
+46 -46
+47 -47
+48 -48
+49 -49
+50 -50
+51 -51
+52 -52
+53 -53
+54 -54
+55 -55
+56 -56
+57 -57
EOF
